nScooters 	= 8;
nEmployees 	= 1;
dummy 	= 2;
TravelTime 	= [|0, 86, 163, 221, 232, 222, 196, 129, 134, 174
|86, 0, 84, 181, 217, 242, 234, 190, 197, 259
|163, 84, 0, 129, 186, 243, 253, 235, 280, 328
|221, 181, 129, 0, 70, 157, 192, 218, 355, 343
|232, 217, 186, 70, 0, 95, 140, 189, 363, 319
|222, 242, 243, 157, 95, 0, 54, 129, 337, 254
|196, 234, 253, 192, 140, 54, 0, 83, 298, 202
|129, 190, 235, 218, 189, 129, 83, 0, 0, 0
|134, 197, 280, 355, 363, 337, 298, 0, 0, 0
|174, 259, 328, 343, 319, 254, 202, 0, 0, 0
|];
Priority = [7, 11, 16, 13, 16, 9, 10, 10];
Payment = [82, 57, 99, 54, 83, 79, 97, 85];
MinNumScooters = [3];
MaxNumScooters = [10];
MaxTime = [1841];
alpha = 7;
beta = 1;
gamma = 13;
